Maximize

100 x_0 + 200 x_1 + 150 x_2 - 200 y_0 - 100 y_1 - 50 y_2


Subject To

a0: x_0 - y_0 <= 0
a1: x_0 - y_1 <= 0
a2: x_1 - y_1 <= 0
a3: x_2 - y_2 <= 0




Binary

x_0 x_1 x_2 y_0 y_1 y_2

 
End
